swarm_exploration/utils/lkh_mtsp_solver/resource/drone_2.tsp
NAME : single
TYPE : ATSP
DIMENSION : 5
EDGE_WEIGHT_TYPE : EXPLICIT
EDGE_WEIGHT_FORMAT : FULL_MATRIX
EDGE_WEIGHT_SECTION
0 309 108 216 249 
0 0 114 134 92 
0 114 0 96 207 
0 134 96 0 222 
0 92 207 222 0 
EOF