swarm_exploration/utils/lkh_mtsp_solver/resource/drone_2.tour
NAME : single.430.tour
COMMENT : Length = 430
COMMENT : Found by LKH [Keld Helsgaun] Sat Feb 20 18:32:13 2021
TYPE : TOUR
DIMENSION : 5
TOUR_SECTION
1
3
4
2
5
-1
EOF
